21029.4
20984.5
20964.8
20780.9
20723.8
20226.4
20226.4
20226.4
20116
20116
20053.8
19756.6
19670.9
19670.9
19450.3
19450.3
19378.3
19173.1
19123.5
18976.2
18976.2
18976.2
18869.7
18869.7
18869.7
18770.8
18698.1
18698.1
18698.1
18486.9
18486.9
18486.9
18486.9
18421.2
18355.9
18223.1
18223.1
18223.1
18176.5
18176.5
18047.2
18047.2
18047.2
18047.2
18029.8
18029.8
18029.8
18029.8
17929
17929
17929
17867.9
17768.3
17768.3
17768.3
17768.3
17768.3
17734.8
17687.6
17644.1
17567.1
17340
17340
17303.5
17303.5
17303.5
17303.5
17303.5
17303.5
17303.5
17198.7
17179.2
17179.2
17154.8
17015.7
16888.5
16888.5
16888.5
16888.5
16888.5
16888.5
16852.6
16852.6
16852.6
16780.8
16780.8
16780.8
16780.8
16780.8
16780.8
16780.8
16716.5
16690.7
16690.7
16690.7
16690.7
16690.7
16641.4
16536.1
16536.1
